(set-info :source |printed by MathSAT|)
(declare-fun call_synapse.ite11 () Int)
(declare-fun call_synapse.garde_s1.next () Bool)
(declare-fun valid_s () Int)
(declare-fun call_Sofar.flby.next () Bool)
(declare-fun call_synapse.flby4 () Int)
(declare-fun call_synapse.ite () Int)
(declare-fun call_synapse.ite7.next () Int)
(declare-fun call_synapse.ite14 () Int)
(declare-fun call_synapse.ite4.next () Int)
(declare-fun call_synapse.ite15.next () Int)
(declare-fun dirty_s () Int)
(declare-fun call_synapse.ite4 () Int)
(declare-fun call_synapse.flby.next () Int)
(declare-fun call_synapse.ite16 () Int)
(declare-fun invalid_s.next () Int)
(declare-fun call_Sofar.Sofar.next () Bool)
(declare-fun call_Sofar.flby () Bool)
(declare-fun call_synapse.ite11.next () Int)
(declare-fun call_synapse.flby3 () Int)
(declare-fun call_synapse.ite12 () Int)
(declare-fun call_synapse.ite5 () Int)
(declare-fun call_synapse.invalid_s () Int)
(declare-fun call_synapse.ite5.next () Int)
(declare-fun call_synapse.flby2.next () Int)
(declare-fun call_synapse.ite16.next () Int)
(declare-fun call_Sofar.Sofar () Bool)
(declare-fun call_synapse.ite12.next () Int)
(declare-fun call_synapse.valid_s.next () Int)
(declare-fun call_synapse.ite17 () Int)
(declare-fun call_synapse.ite6.next () Int)
(declare-fun call_synapse.ite3.next () Int)
(declare-fun param_e_s3 () Bool)
(declare-fun call_synapse.ite13 () Int)
(declare-fun invalid_s () Int)
(declare-fun _OK_ () Bool)
(declare-fun call_synapse.dirty_s () Int)
(declare-fun call_synapse.ite13.next () Int)
(declare-fun param_e_s2 () Bool)
(declare-fun mem_init_s.next () Int)
(declare-fun call_synapse.garde_s3.next () Bool)
(declare-fun call_synapse.ite18 () Int)
(declare-fun call_excludes3.excludes.next () Bool)
(declare-fun call_synapse.ite8.next () Int)
(declare-fun call_synapse.garde_s2.next () Bool)
(declare-fun dirty_s.next () Int)
(declare-fun env () Bool)
(declare-fun call_synapse.ite18.next () Int)
(declare-fun call_synapse.valid_s () Int)
(declare-fun call_synapse.ite10.next () Int)
(declare-fun _OK_.next () Bool)
(declare-fun call_synapse.ite17.next () Int)
(declare-fun mem_init_s () Int)
(declare-fun param_init_invalid_s.next () Int)
(declare-fun call_synapse.ite14.next () Int)
(declare-fun param_e_s1 () Bool)
(declare-fun call_synapse.flby2 () Int)
(declare-fun call_synapse.invalid_s.next () Int)
(declare-fun call_synapse.ite10 () Int)
(declare-fun call_synapse.dirty_s.next () Int)
(declare-fun call_synapse.ite2.next () Int)
(declare-fun call_synapse.ite9.next () Int)
(declare-fun call_synapse.ite2 () Int)
(declare-fun param_e_s3.next () Bool)
(declare-fun call_excludes3.excludes () Bool)
(declare-fun call_synapse.ite7 () Int)
(declare-fun call_synapse.flby4.next () Int)
(declare-fun call_synapse.ite.next () Int)
(declare-fun env.next () Bool)
(declare-fun call_synapse.flby () Int)
(declare-fun call_synapse.ite6 () Int)
(declare-fun call_synapse.ite8 () Int)
(declare-fun call_synapse.mem_init_s.next () Int)
(declare-fun param_e_s1.next () Bool)
(declare-fun call_synapse.flby3.next () Int)
(declare-fun param_e_s2.next () Bool)
(declare-fun call_synapse.mem_init_s () Int)
(declare-fun valid_s.next () Int)
(define-fun .def_791 () Bool (= call_Sofar.flby.next call_Sofar.Sofar.next))
(define-fun .def_786 () Bool (and param_e_s3.next param_e_s2.next))
(define-fun .def_784 () Bool (and param_e_s3.next param_e_s1.next))
(define-fun .def_783 () Bool (and param_e_s1.next param_e_s2.next))
(define-fun .def_785 () Bool (or .def_783 .def_784))
(define-fun .def_787 () Bool (or .def_785 .def_786))
(define-fun .def_788 () Bool (not .def_787))
(define-fun .def_789 () Bool (= call_excludes3.excludes.next .def_788))
(define-fun .def_781 () Bool (= call_synapse.flby.next call_synapse.mem_init_s.next))
(define-fun .def_779 () Bool (= call_synapse.flby4.next call_synapse.dirty_s.next))
(define-fun .def_777 () Bool (= call_synapse.flby3.next call_synapse.valid_s.next))
(define-fun .def_775 () Bool (= call_synapse.flby2.next call_synapse.invalid_s.next))
(define-fun .def_771 () Bool (= call_synapse.ite16.next call_synapse.ite17.next))
(define-fun .def_772 () Bool (or param_e_s2.next .def_771))
(define-fun .def_768 () Bool (= call_synapse.ite14.next call_synapse.ite17.next))
(define-fun .def_759 () Bool (not param_e_s2.next))
(define-fun .def_769 () Bool (or .def_759 .def_768))
(define-fun .def_765 () Bool (= call_synapse.ite10.next call_synapse.ite11.next))
(define-fun .def_766 () Bool (or param_e_s2.next .def_765))
(define-fun .def_762 () Bool (= call_synapse.ite8.next call_synapse.ite11.next))
(define-fun .def_763 () Bool (or .def_759 .def_762))
(define-fun .def_758 () Bool (= call_synapse.ite2.next call_synapse.ite5.next))
(define-fun .def_760 () Bool (or .def_758 .def_759))
(define-fun .def_755 () Bool (= call_synapse.ite4.next call_synapse.ite5.next))
(define-fun .def_757 () Bool (or .def_755 param_e_s2.next))
(define-fun .def_761 () Bool (and .def_757 .def_760))
(define-fun .def_764 () Bool (and .def_761 .def_763))
(define-fun .def_767 () Bool (and .def_764 .def_766))
(define-fun .def_770 () Bool (and .def_767 .def_769))
(define-fun .def_773 () Bool (and .def_770 .def_772))
(define-fun .def_751 () Bool (= call_synapse.ite18.next call_synapse.ite17.next))
(define-fun .def_752 () Bool (or param_e_s1.next .def_751))
(define-fun .def_747 () Bool (= call_synapse.ite13.next call_synapse.ite18.next))
(define-fun .def_737 () Bool (not param_e_s1.next))
(define-fun .def_748 () Bool (or .def_737 .def_747))
(define-fun .def_744 () Bool (= call_synapse.ite12.next call_synapse.ite11.next))
(define-fun .def_745 () Bool (or param_e_s1.next .def_744))
(define-fun .def_740 () Bool (= call_synapse.ite7.next call_synapse.ite12.next))
(define-fun .def_741 () Bool (or .def_737 .def_740))
(define-fun .def_736 () Bool (= call_synapse.ite.next call_synapse.ite6.next))
(define-fun .def_738 () Bool (or .def_736 .def_737))
(define-fun .def_733 () Bool (= call_synapse.ite6.next call_synapse.ite5.next))
(define-fun .def_735 () Bool (or .def_733 param_e_s1.next))
(define-fun .def_739 () Bool (and .def_735 .def_738))
(define-fun .def_742 () Bool (and .def_739 .def_741))
(define-fun .def_746 () Bool (and .def_742 .def_745))
(define-fun .def_749 () Bool (and .def_746 .def_748))
(define-fun .def_753 () Bool (and .def_749 .def_752))
(define-fun .def_730 () Bool (= env.next call_Sofar.Sofar.next))
(define-fun .def_727 () Bool (= mem_init_s.next call_synapse.mem_init_s.next))
(define-fun .def_723 () Bool (= dirty_s.next call_synapse.dirty_s.next))
(define-fun .def_720 () Bool (= valid_s.next call_synapse.valid_s.next))
(define-fun .def_716 () Bool (= invalid_s.next call_synapse.invalid_s.next))
(define-fun .def_710 () Bool (<= 2 invalid_s.next))
(define-fun .def_711 () Bool (not .def_710))
(define-fun .def_707 () Bool (<= 1 dirty_s.next))
(define-fun .def_708 () Bool (not .def_707))
(define-fun .def_712 () Bool (or .def_708 .def_711))
(define-fun .def_705 () Bool (not env.next))
(define-fun .def_713 () Bool (or .def_705 .def_712))
(define-fun .def_714 () Bool (= _OK_.next .def_713))
(define-fun .def_717 () Bool (and .def_714 .def_716))
(define-fun .def_721 () Bool (and .def_717 .def_720))
(define-fun .def_724 () Bool (and .def_721 .def_723))
(define-fun .def_728 () Bool (and .def_724 .def_727))
(define-fun .def_731 () Bool (and .def_728 .def_730))
(define-fun .def_754 () Bool (and .def_731 .def_753))
(define-fun .def_774 () Bool (and .def_754 .def_773))
(define-fun .def_776 () Bool (and .def_774 .def_775))
(define-fun .def_778 () Bool (and .def_776 .def_777))
(define-fun .def_780 () Bool (and .def_778 .def_779))
(define-fun .def_782 () Bool (and .def_780 .def_781))
(define-fun .def_790 () Bool (and .def_782 .def_789))
(define-fun .def_792 () Bool (and .def_790 .def_791))
(define-fun .def_557 () Bool (= call_Sofar.flby call_Sofar.Sofar))
(define-fun .def_552 () Bool (and param_e_s3 param_e_s2))
(define-fun .def_550 () Bool (and param_e_s3 param_e_s1))
(define-fun .def_549 () Bool (and param_e_s1 param_e_s2))
(define-fun .def_551 () Bool (or .def_549 .def_550))
(define-fun .def_553 () Bool (or .def_551 .def_552))
(define-fun .def_554 () Bool (not .def_553))
(define-fun .def_555 () Bool (= call_excludes3.excludes .def_554))
(define-fun .def_547 () Bool (= call_synapse.flby call_synapse.mem_init_s))
(define-fun .def_545 () Bool (= call_synapse.flby4 call_synapse.dirty_s))
(define-fun .def_543 () Bool (= call_synapse.flby3 call_synapse.valid_s))
(define-fun .def_541 () Bool (= call_synapse.flby2 call_synapse.invalid_s))
(define-fun .def_537 () Bool (= call_synapse.ite16 call_synapse.ite17))
(define-fun .def_538 () Bool (or param_e_s2 .def_537))
(define-fun .def_534 () Bool (= call_synapse.ite14 call_synapse.ite17))
(define-fun .def_525 () Bool (not param_e_s2))
(define-fun .def_535 () Bool (or .def_525 .def_534))
(define-fun .def_531 () Bool (= call_synapse.ite10 call_synapse.ite11))
(define-fun .def_532 () Bool (or param_e_s2 .def_531))
(define-fun .def_528 () Bool (= call_synapse.ite8 call_synapse.ite11))
(define-fun .def_529 () Bool (or .def_525 .def_528))
(define-fun .def_524 () Bool (= call_synapse.ite5 call_synapse.ite2))
(define-fun .def_526 () Bool (or .def_524 .def_525))
(define-fun .def_520 () Bool (= call_synapse.ite4 call_synapse.ite5))
(define-fun .def_522 () Bool (or .def_520 param_e_s2))
(define-fun .def_527 () Bool (and .def_522 .def_526))
(define-fun .def_530 () Bool (and .def_527 .def_529))
(define-fun .def_533 () Bool (and .def_530 .def_532))
(define-fun .def_536 () Bool (and .def_533 .def_535))
(define-fun .def_539 () Bool (and .def_536 .def_538))
(define-fun .def_516 () Bool (= call_synapse.ite18 call_synapse.ite17))
(define-fun .def_517 () Bool (or param_e_s1 .def_516))
(define-fun .def_512 () Bool (= call_synapse.ite13 call_synapse.ite18))
(define-fun .def_499 () Bool (not param_e_s1))
(define-fun .def_513 () Bool (or .def_499 .def_512))
(define-fun .def_508 () Bool (= call_synapse.ite12 call_synapse.ite11))
(define-fun .def_509 () Bool (or param_e_s1 .def_508))
(define-fun .def_504 () Bool (= call_synapse.ite7 call_synapse.ite12))
(define-fun .def_505 () Bool (or .def_499 .def_504))
(define-fun .def_498 () Bool (= call_synapse.ite6 call_synapse.ite))
(define-fun .def_500 () Bool (or .def_498 .def_499))
(define-fun .def_494 () Bool (= call_synapse.ite6 call_synapse.ite5))
(define-fun .def_496 () Bool (or .def_494 param_e_s1))
(define-fun .def_501 () Bool (and .def_496 .def_500))
(define-fun .def_506 () Bool (and .def_501 .def_505))
(define-fun .def_510 () Bool (and .def_506 .def_509))
(define-fun .def_514 () Bool (and .def_510 .def_513))
(define-fun .def_518 () Bool (and .def_514 .def_517))
(define-fun .def_490 () Bool (= env call_Sofar.Sofar))
(define-fun .def_487 () Bool (= call_synapse.mem_init_s mem_init_s))
(define-fun .def_484 () Bool (= dirty_s call_synapse.dirty_s))
(define-fun .def_481 () Bool (= valid_s call_synapse.valid_s))
(define-fun .def_477 () Bool (= invalid_s call_synapse.invalid_s))
(define-fun .def_471 () Bool (<= 2 invalid_s))
(define-fun .def_472 () Bool (not .def_471))
(define-fun .def_468 () Bool (<= 1 dirty_s))
(define-fun .def_469 () Bool (not .def_468))
(define-fun .def_473 () Bool (or .def_469 .def_472))
(define-fun .def_466 () Bool (not env))
(define-fun .def_474 () Bool (or .def_466 .def_473))
(define-fun .def_475 () Bool (= _OK_ .def_474))
(define-fun .def_478 () Bool (and .def_475 .def_477))
(define-fun .def_482 () Bool (and .def_478 .def_481))
(define-fun .def_485 () Bool (and .def_482 .def_484))
(define-fun .def_488 () Bool (and .def_485 .def_487))
(define-fun .def_491 () Bool (and .def_488 .def_490))
(define-fun .def_519 () Bool (and .def_491 .def_518))
(define-fun .def_540 () Bool (and .def_519 .def_539))
(define-fun .def_542 () Bool (and .def_540 .def_541))
(define-fun .def_544 () Bool (and .def_542 .def_543))
(define-fun .def_546 () Bool (and .def_544 .def_545))
(define-fun .def_548 () Bool (and .def_546 .def_547))
(define-fun .def_556 () Bool (and .def_548 .def_555))
(define-fun .def_558 () Bool (and .def_556 .def_557))
(define-fun .def_793 () Bool (and .def_558 .def_792))
(define-fun .def_696 () Bool (<= 0 param_init_invalid_s.next))
(define-fun .def_698 () Bool (and .def_696 call_excludes3.excludes.next))
(define-fun .def_699 () Bool (and call_Sofar.Sofar .def_698))
(define-fun .def_701 () Bool (= .def_699 call_Sofar.flby.next))
(define-fun .def_693 () Bool (= call_synapse.ite18.next call_synapse.flby4.next))
(define-fun .def_689 () Bool (= call_synapse.ite12.next call_synapse.flby3.next))
(define-fun .def_685 () Bool (= call_synapse.ite6.next call_synapse.flby2.next))
(define-fun .def_681 () Bool (= call_synapse.mem_init_s call_synapse.flby.next))
(define-fun .def_659 () Bool (<= 1 call_synapse.invalid_s))
(define-fun .def_677 () Bool (= call_synapse.garde_s3.next .def_659))
(define-fun .def_674 () Bool (= call_synapse.ite9.next 0))
(define-fun .def_599 () Bool (not call_synapse.garde_s3.next))
(define-fun .def_675 () Bool (or .def_599 .def_674))
(define-fun .def_672 () Bool (= call_synapse.ite15.next 1))
(define-fun .def_673 () Bool (or .def_599 .def_672))
(define-fun .def_676 () Bool (and .def_673 .def_675))
(define-fun .def_678 () Bool (and .def_676 .def_677))
(define-fun .def_668 () Bool (<= 1 call_synapse.valid_s))
(define-fun .def_669 () Bool (= call_synapse.garde_s2.next .def_668))
(define-fun .def_665 () Bool (= call_synapse.ite8.next 0))
(define-fun .def_583 () Bool (not call_synapse.garde_s2.next))
(define-fun .def_666 () Bool (or .def_583 .def_665))
(define-fun .def_663 () Bool (= call_synapse.ite14.next 1))
(define-fun .def_664 () Bool (or .def_583 .def_663))
(define-fun .def_667 () Bool (and .def_664 .def_666))
(define-fun .def_670 () Bool (and .def_667 .def_669))
(define-fun .def_660 () Bool (= call_synapse.garde_s1.next .def_659))
(define-fun .def_657 () Bool (= call_synapse.ite13.next 0))
(define-fun .def_570 () Bool (not call_synapse.garde_s1.next))
(define-fun .def_658 () Bool (or .def_570 .def_657))
(define-fun .def_661 () Bool (and .def_658 .def_660))
(define-fun .def_653 () Bool (= call_synapse.dirty_s call_synapse.ite15.next))
(define-fun .def_654 () Bool (or call_synapse.garde_s3.next .def_653))
(define-fun .def_650 () Bool (= call_synapse.dirty_s call_synapse.ite13.next))
(define-fun .def_651 () Bool (or call_synapse.garde_s1.next .def_650))
(define-fun .def_647 () Bool (= call_synapse.dirty_s call_synapse.ite14.next))
(define-fun .def_648 () Bool (or call_synapse.garde_s2.next .def_647))
(define-fun .def_652 () Bool (and .def_648 .def_651))
(define-fun .def_655 () Bool (and .def_652 .def_654))
(define-fun .def_642 () Bool (= call_synapse.valid_s call_synapse.ite9.next))
(define-fun .def_643 () Bool (or call_synapse.garde_s3.next .def_642))
(define-fun .def_639 () Bool (= call_synapse.valid_s call_synapse.ite8.next))
(define-fun .def_640 () Bool (or call_synapse.garde_s2.next .def_639))
(define-fun .def_633 () Int (* (- 1) call_synapse.ite7.next))
(define-fun .def_634 () Int (+ call_synapse.valid_s .def_633))
(define-fun .def_635 () Bool (= .def_634 (- 1)))
(define-fun .def_636 () Bool (or .def_570 .def_635))
(define-fun .def_631 () Bool (= call_synapse.valid_s call_synapse.ite7.next))
(define-fun .def_632 () Bool (or call_synapse.garde_s1.next .def_631))
(define-fun .def_637 () Bool (and .def_632 .def_636))
(define-fun .def_641 () Bool (and .def_637 .def_640))
(define-fun .def_644 () Bool (and .def_641 .def_643))
(define-fun .def_626 () Bool (= call_synapse.dirty_s call_synapse.ite16.next))
(define-fun .def_627 () Bool (or param_e_s3.next .def_626))
(define-fun .def_623 () Bool (= call_synapse.ite15.next call_synapse.ite16.next))
(define-fun .def_610 () Bool (not param_e_s3.next))
(define-fun .def_624 () Bool (or .def_610 .def_623))
(define-fun .def_618 () Bool (= call_synapse.valid_s call_synapse.ite10.next))
(define-fun .def_619 () Bool (or param_e_s3.next .def_618))
(define-fun .def_615 () Bool (= call_synapse.ite9.next call_synapse.ite10.next))
(define-fun .def_616 () Bool (or .def_610 .def_615))
(define-fun .def_609 () Bool (= call_synapse.ite3.next call_synapse.ite4.next))
(define-fun .def_611 () Bool (or .def_609 .def_610))
(define-fun .def_606 () Bool (= call_synapse.invalid_s call_synapse.ite4.next))
(define-fun .def_608 () Bool (or .def_606 param_e_s3.next))
(define-fun .def_612 () Bool (and .def_608 .def_611))
(define-fun .def_617 () Bool (and .def_612 .def_616))
(define-fun .def_620 () Bool (and .def_617 .def_619))
(define-fun .def_625 () Bool (and .def_620 .def_624))
(define-fun .def_628 () Bool (and .def_625 .def_627))
(define-fun .def_602 () Bool (= call_synapse.invalid_s call_synapse.ite3.next))
(define-fun .def_603 () Bool (or call_synapse.garde_s3.next .def_602))
(define-fun .def_590 () Int (* (- 1) call_synapse.ite3.next))
(define-fun .def_594 () Int (+ call_synapse.dirty_s .def_590))
(define-fun .def_595 () Int (+ call_synapse.valid_s .def_594))
(define-fun .def_596 () Int (+ call_synapse.invalid_s .def_595))
(define-fun .def_597 () Bool (= .def_596 1))
(define-fun .def_600 () Bool (or .def_597 .def_599))
(define-fun .def_586 () Bool (= call_synapse.invalid_s call_synapse.ite2.next))
(define-fun .def_587 () Bool (or call_synapse.garde_s2.next .def_586))
(define-fun .def_574 () Int (* (- 1) call_synapse.ite2.next))
(define-fun .def_578 () Int (+ call_synapse.dirty_s .def_574))
(define-fun .def_579 () Int (+ call_synapse.valid_s .def_578))
(define-fun .def_580 () Int (+ call_synapse.invalid_s .def_579))
(define-fun .def_581 () Bool (= .def_580 1))
(define-fun .def_584 () Bool (or .def_581 .def_583))
(define-fun .def_564 () Int (* (- 1) call_synapse.ite.next))
(define-fun .def_567 () Int (+ call_synapse.dirty_s .def_564))
(define-fun .def_568 () Int (+ call_synapse.invalid_s .def_567))
(define-fun .def_569 () Bool (= .def_568 1))
(define-fun .def_571 () Bool (or .def_569 .def_570))
(define-fun .def_561 () Bool (= call_synapse.invalid_s call_synapse.ite.next))
(define-fun .def_563 () Bool (or .def_561 call_synapse.garde_s1.next))
(define-fun .def_572 () Bool (and .def_563 .def_571))
(define-fun .def_585 () Bool (and .def_572 .def_584))
(define-fun .def_588 () Bool (and .def_585 .def_587))
(define-fun .def_601 () Bool (and .def_588 .def_600))
(define-fun .def_604 () Bool (and .def_601 .def_603))
(define-fun .def_629 () Bool (and .def_604 .def_628))
(define-fun .def_645 () Bool (and .def_629 .def_644))
(define-fun .def_656 () Bool (and .def_645 .def_655))
(define-fun .def_662 () Bool (and .def_656 .def_661))
(define-fun .def_671 () Bool (and .def_662 .def_670))
(define-fun .def_679 () Bool (and .def_671 .def_678))
(define-fun .def_682 () Bool (and .def_679 .def_681))
(define-fun .def_686 () Bool (and .def_682 .def_685))
(define-fun .def_690 () Bool (and .def_686 .def_689))
(define-fun .def_694 () Bool (and .def_690 .def_693))
(define-fun .def_702 () Bool (and .def_694 .def_701))
(define-fun .def_794 () Bool (and .def_702 .def_793))
(assert .def_794)
